p cnf 342 738
1 3 5 7 13 15 0
16 17 18 19 20 22 23 26 27 0
32 33 37 38 40 41 43 44 0
46 48 49 50 56 60 0
61 63 65 69 71 72 73 74 0
77 78 80 81 82 84 85 87 0
94 96 97 102 104 105 0
107 108 110 113 116 117 0
121 122 128 129 131 132 134 135 0
136 138 141 142 143 144 145 147 148 150 0
151 152 157 159 160 161 164 165 0
166 167 169 170 177 180 0
181 187 189 190 191 192 193 0
197 199 200 202 203 204 205 207 208 209 210 0
211 212 213 217 221 225 0
226 227 232 234 235 236 238 0
1 16 46 61 121 136 151 166 181 211 226 0
17 32 77 107 122 152 167 197 212 227 0
3 18 33 48 63 78 108 138 213 0
19 49 94 169 199 0
5 20 50 65 80 110 170 200 0
81 96 141 0
7 22 37 82 97 142 157 187 202 217 232 0
23 38 113 128 143 203 0
69 84 129 144 159 189 204 234 0
40 85 145 160 190 205 235 0
26 41 56 71 116 131 161 191 221 236 0
27 72 87 102 117 132 147 177 192 207 0
13 43 73 148 193 208 238 0
44 74 104 134 164 209 0
15 60 105 135 150 165 180 210 225 0
-1 -16 0
-1 -46 0
-1 -61 0
-1 -121 0
-1 -136 0
-1 -151 0
-1 -166 0
-1 -181 0
-1 -211 0
-1 -226 0
-16 -46 0
-16 -61 0
-16 -121 0
-16 -136 0
-16 -151 0
-16 -166 0
-16 -181 0
-16 -211 0
-16 -226 0
-46 -61 0
-46 -121 0
-46 -136 0
-46 -151 0
-46 -166 0
-46 -181 0
-46 -211 0
-46 -226 0
-61 -121 0
-61 -136 0
-61 -151 0
-61 -166 0
-61 -181 0
-61 -211 0
-61 -226 0
-121 -136 0
-121 -151 0
-121 -166 0
-121 -181 0
-121 -211 0
-121 -226 0
-136 -151 0
-136 -166 0
-136 -181 0
-136 -211 0
-136 -226 0
-151 -166 0
-151 -181 0
-151 -211 0
-151 -226 0
-166 -181 0
-166 -211 0
-166 -226 0
-181 -211 0
-181 -226 0
-211 -226 0
-17 -32 0
-17 -77 0
-17 -107 0
-17 -122 0
-17 -152 0
-17 -167 0
-17 -197 0
-17 -212 0
-17 -227 0
-32 -77 0
-32 -107 0
-32 -122 0
-32 -152 0
-32 -167 0
-32 -197 0
-32 -212 0
-32 -227 0
-77 -107 0
-77 -122 0
-77 -152 0
-77 -167 0
-77 -197 0
-77 -212 0
-77 -227 0
-107 -122 0
-107 -152 0
-107 -167 0
-107 -197 0
-107 -212 0
-107 -227 0
-122 -152 0
-122 -167 0
-122 -197 0
-122 -212 0
-122 -227 0
-152 -167 0
-152 -197 0
-152 -212 0
-152 -227 0
-167 -197 0
-167 -212 0
-167 -227 0
-197 -212 0
-197 -227 0
-212 -227 0
-3 -18 0
-3 -33 0
-3 -241 0
-18 -33 0
-18 -241 0
-33 -241 0
241 -48 0
241 -63 0
241 -242 0
-48 -63 0
-48 -242 0
-63 -242 0
242 -78 0
242 -108 0
242 -243 0
-78 -108 0
-78 -243 0
-108 -243 0
243 -138 0
243 -213 0
-138 -213 0
-19 244 0
-49 245 0
-49 -244 0
-244 245 0
-94 246 0
-94 -245 0
-245 246 0
-169 247 0
-169 -246 0
-246 247 0
-199 -247 0
-5 248 0
-20 249 0
-20 -248 0
-248 249 0
-50 250 0
-50 -249 0
-249 250 0
-65 251 0
-65 -250 0
-250 251 0
-80 252 0
-80 -251 0
-251 252 0
-110 253 0
-110 -252 0
-252 253 0
-170 254 0
-170 -253 0
-253 254 0
-200 -254 0
-81 -96 0
-81 -141 0
-96 -141 0
-7 255 0
-22 256 0
-22 -255 0
-255 256 0
-37 257 0
-37 -256 0
-256 257 0
-82 258 0
-82 -257 0
-257 258 0
-97 259 0
-97 -258 0
-258 259 0
-142 260 0
-142 -259 0
-259 260 0
-157 261 0
-157 -260 0
-260 261 0
-187 262 0
-187 -261 0
-261 262 0
-202 263 0
-202 -262 0
-262 263 0
-217 264 0
-217 -263 0
-263 264 0
-232 -264 0
-23 265 0
-38 266 0
-38 -265 0
-265 266 0
-113 267 0
-113 -266 0
-266 267 0
-128 268 0
-128 -267 0
-267 268 0
-143 269 0
-143 -268 0
-268 269 0
-203 -269 0
-69 -84 0
-69 -129 0
-69 -270 0
-84 -129 0
-84 -270 0
-129 -270 0
270 -144 0
270 -159 0
270 -271 0
-144 -159 0
-144 -271 0
-159 -271 0
271 -189 0
271 -204 0
271 -234 0
-189 -204 0
-189 -234 0
-204 -234 0
-40 272 0
-85 273 0
-85 -272 0
-272 273 0
-145 274 0
-145 -273 0
-273 274 0
-160 275 0
-160 -274 0
-274 275 0
-190 276 0
-190 -275 0
-275 276 0
-205 277 0
-205 -276 0
-276 277 0
-235 -277 0
-26 278 0
-41 279 0
-41 -278 0
-278 279 0
-56 280 0
-56 -279 0
-279 280 0
-71 281 0
-71 -280 0
-280 281 0
-116 282 0
-116 -281 0
-281 282 0
-131 283 0
-131 -282 0
-282 283 0
-161 284 0
-161 -283 0
-283 284 0
-191 285 0
-191 -284 0
-284 285 0
-221 286 0
-221 -285 0
-285 286 0
-236 -286 0
-27 -72 0
-27 -87 0
-27 -287 0
-72 -87 0
-72 -287 0
-87 -287 0
287 -102 0
287 -117 0
287 -288 0
-102 -117 0
-102 -288 0
-117 -288 0
288 -132 0
288 -147 0
288 -289 0
-132 -147 0
-132 -289 0
-147 -289 0
289 -177 0
289 -192 0
289 -207 0
-177 -192 0
-177 -207 0
-192 -207 0
-13 -43 0
-13 -73 0
-13 -290 0
-43 -73 0
-43 -290 0
-73 -290 0
290 -148 0
290 -193 0
290 -291 0
-148 -193 0
-148 -291 0
-193 -291 0
291 -208 0
291 -238 0
-208 -238 0
-44 -74 0
-44 -104 0
-44 -134 0
-44 -164 0
-44 -209 0
-74 -104 0
-74 -134 0
-74 -164 0
-74 -209 0
-104 -134 0
-104 -164 0
-104 -209 0
-134 -164 0
-134 -209 0
-164 -209 0
-15 -60 0
-15 -105 0
-15 -135 0
-15 -150 0
-15 -165 0
-15 -180 0
-15 -210 0
-15 -225 0
-60 -105 0
-60 -135 0
-60 -150 0
-60 -165 0
-60 -180 0
-60 -210 0
-60 -225 0
-105 -135 0
-105 -150 0
-105 -165 0
-105 -180 0
-105 -210 0
-105 -225 0
-135 -150 0
-135 -165 0
-135 -180 0
-135 -210 0
-135 -225 0
-150 -165 0
-150 -180 0
-150 -210 0
-150 -225 0
-165 -180 0
-165 -210 0
-165 -225 0
-180 -210 0
-180 -225 0
-210 -225 0
-1 292 0
-3 293 0
-3 -292 0
-292 293 0
-5 294 0
-5 -293 0
-293 294 0
-7 295 0
-7 -294 0
-294 295 0
-13 296 0
-13 -295 0
-295 296 0
-15 -296 0
-16 -17 0
-16 -18 0
-16 -297 0
-17 -18 0
-17 -297 0
-18 -297 0
297 -19 0
297 -20 0
297 -298 0
-19 -20 0
-19 -298 0
-20 -298 0
298 -22 0
298 -23 0
298 -299 0
-22 -23 0
-22 -299 0
-23 -299 0
299 -26 0
299 -27 0
-26 -27 0
-32 300 0
-33 301 0
-33 -300 0
-300 301 0
-37 302 0
-37 -301 0
-301 302 0
-38 303 0
-38 -302 0
-302 303 0
-40 304 0
-40 -303 0
-303 304 0
-41 305 0
-41 -304 0
-304 305 0
-43 306 0
-43 -305 0
-305 306 0
-44 -306 0
-46 -48 0
-46 -49 0
-46 -50 0
-46 -56 0
-46 -60 0
-48 -49 0
-48 -50 0
-48 -56 0
-48 -60 0
-49 -50 0
-49 -56 0
-49 -60 0
-50 -56 0
-50 -60 0
-56 -60 0
-61 -63 0
-61 -65 0
-61 -69 0
-61 -71 0
-61 -72 0
-61 -73 0
-61 -74 0
-63 -65 0
-63 -69 0
-63 -71 0
-63 -72 0
-63 -73 0
-63 -74 0
-65 -69 0
-65 -71 0
-65 -72 0
-65 -73 0
-65 -74 0
-69 -71 0
-69 -72 0
-69 -73 0
-69 -74 0
-71 -72 0
-71 -73 0
-71 -74 0
-72 -73 0
-72 -74 0
-73 -74 0
-77 -78 0
-77 -80 0
-77 -81 0
-77 -82 0
-77 -84 0
-77 -85 0
-77 -87 0
-78 -80 0
-78 -81 0
-78 -82 0
-78 -84 0
-78 -85 0
-78 -87 0
-80 -81 0
-80 -82 0
-80 -84 0
-80 -85 0
-80 -87 0
-81 -82 0
-81 -84 0
-81 -85 0
-81 -87 0
-82 -84 0
-82 -85 0
-82 -87 0
-84 -85 0
-84 -87 0
-85 -87 0
-94 307 0
-96 308 0
-96 -307 0
-307 308 0
-97 309 0
-97 -308 0
-308 309 0
-102 310 0
-102 -309 0
-309 310 0
-104 311 0
-104 -310 0
-310 311 0
-105 -311 0
-107 312 0
-108 313 0
-108 -312 0
-312 313 0
-110 314 0
-110 -313 0
-313 314 0
-113 315 0
-113 -314 0
-314 315 0
-116 316 0
-116 -315 0
-315 316 0
-117 -316 0
-121 317 0
-122 318 0
-122 -317 0
-317 318 0
-128 319 0
-128 -318 0
-318 319 0
-129 320 0
-129 -319 0
-319 320 0
-131 321 0
-131 -320 0
-320 321 0
-132 322 0
-132 -321 0
-321 322 0
-134 323 0
-134 -322 0
-322 323 0
-135 -323 0
-136 -138 0
-136 -141 0
-136 -142 0
-136 -143 0
-136 -144 0
-136 -145 0
-136 -147 0
-136 -148 0
-136 -150 0
-138 -141 0
-138 -142 0
-138 -143 0
-138 -144 0
-138 -145 0
-138 -147 0
-138 -148 0
-138 -150 0
-141 -142 0
-141 -143 0
-141 -144 0
-141 -145 0
-141 -147 0
-141 -148 0
-141 -150 0
-142 -143 0
-142 -144 0
-142 -145 0
-142 -147 0
-142 -148 0
-142 -150 0
-143 -144 0
-143 -145 0
-143 -147 0
-143 -148 0
-143 -150 0
-144 -145 0
-144 -147 0
-144 -148 0
-144 -150 0
-145 -147 0
-145 -148 0
-145 -150 0
-147 -148 0
-147 -150 0
-148 -150 0
-151 324 0
-152 325 0
-152 -324 0
-324 325 0
-157 326 0
-157 -325 0
-325 326 0
-159 327 0
-159 -326 0
-326 327 0
-160 328 0
-160 -327 0
-327 328 0
-161 329 0
-161 -328 0
-328 329 0
-164 330 0
-164 -329 0
-329 330 0
-165 -330 0
-166 -167 0
-166 -169 0
-166 -170 0
-166 -177 0
-166 -180 0
-167 -169 0
-167 -170 0
-167 -177 0
-167 -180 0
-169 -170 0
-169 -177 0
-169 -180 0
-170 -177 0
-170 -180 0
-177 -180 0
-181 331 0
-187 332 0
-187 -331 0
-331 332 0
-189 333 0
-189 -332 0
-332 333 0
-190 334 0
-190 -333 0
-333 334 0
-191 335 0
-191 -334 0
-334 335 0
-192 336 0
-192 -335 0
-335 336 0
-193 -336 0
-197 -199 0
-197 -200 0
-197 -202 0
-197 -203 0
-197 -204 0
-197 -205 0
-197 -207 0
-197 -208 0
-197 -209 0
-197 -210 0
-199 -200 0
-199 -202 0
-199 -203 0
-199 -204 0
-199 -205 0
-199 -207 0
-199 -208 0
-199 -209 0
-199 -210 0
-200 -202 0
-200 -203 0
-200 -204 0
-200 -205 0
-200 -207 0
-200 -208 0
-200 -209 0
-200 -210 0
-202 -203 0
-202 -204 0
-202 -205 0
-202 -207 0
-202 -208 0
-202 -209 0
-202 -210 0
-203 -204 0
-203 -205 0
-203 -207 0
-203 -208 0
-203 -209 0
-203 -210 0
-204 -205 0
-204 -207 0
-204 -208 0
-204 -209 0
-204 -210 0
-205 -207 0
-205 -208 0
-205 -209 0
-205 -210 0
-207 -208 0
-207 -209 0
-207 -210 0
-208 -209 0
-208 -210 0
-209 -210 0
-211 -212 0
-211 -213 0
-211 -217 0
-211 -221 0
-211 -225 0
-212 -213 0
-212 -217 0
-212 -221 0
-212 -225 0
-213 -217 0
-213 -221 0
-213 -225 0
-217 -221 0
-217 -225 0
-221 -225 0
-226 337 0
-227 338 0
-227 -337 0
-337 338 0
-232 339 0
-232 -338 0
-338 339 0
-234 340 0
-234 -339 0
-339 340 0
-235 341 0
-235 -340 0
-340 341 0
-236 342 0
-236 -341 0
-341 342 0
-238 -342 0
